32963.08 0
1 18 195 36 61 117 4 176 123 52 59 43 92 3 154 42 70 121 122 187 38 72 146 178 12 78 180 155 199 0 125 161 168 49 174 26 23 87 164 40 83 136 171 68 106 183 157 14 90 53 76 62 153 15 151 95 85 159 193 79 156 133 75 126 108 124 45 145 170 60 111 73 197 194 100 189 120 7 65 51 137 119 179 129 80 33 148 185 37 22 41 109 167 10 88 89 16 139 93 31 104 96 166 97 169 48 138 69 152 172 184 21 192 110 102 57 127 28 190 196 175 198 107 128 35 158 74 66 131 6 160 134 71 56 30 98 77 173 64 186 13 67 32 44 165 103 182 105 114 11 132 46 27 150 94 55 20 181 163 141 19 24 113 81 188 142 84 63 149 58 17 5 39 82 2 115 101 8 9 147 130 162 25 86 112 54 177 91 116 144 135 140 47 143 29 34 118 50 191 99